41 41
4 5
9 5
9 4
10 3
5 9
3 3
8 6
10 8
5 4
2 2
1 2
4 9
4 5
4 2
10 9
8 4
2 6
10 1
5 10
4 6
2 2
2 8
10 10
7 3
4 3
7 8
3 8
10 3
1 6
6 1
4 1
4 5
2 8
3 10
2 5
9 8
6 3
6 5
5 7
3 10
8 1
14 12 59
20 18 77
14 11 68
14 16 74
12 14 71
13 16 69
10 12 56
14 18 91
19 19 57
14 12 55
16 20 64
12 18 69
18 11 77
19 12 71
12 16 63
12 10 64
11 13 76
18 12 68
16 20 76
12 14 79
15 11 73
19 13 81
13 12 51
12 10 81
12 19 55
10 15 62
13 13 95
18 19 53
16 19 68
11 20 93
17 15 80
17 19 97
11 14 90
11 16 99
10 14 56
17 10 100
10 16 84
20 16 70
12 15 98
15 15 54
17 13 82
